NAME: concorde91
TYPE: TSP
DIMENSION: 25 
EDGE_WEIGHT_TYPE: EUC_2D
NODE_COORD_SECTION
1 86 51
2 73 83
3 91 56
4 74 1
5 16 48
6 48 3
7 41 24
8 47 96
9 44 27
10 2 4
11 66 97
12 39 4
13 2 57
14 29 49
15 0 82
16 65 53
17 83 84
18 76 7
19 51 75
20 62 34
21 40 62
22 43 72
23 64 95
24 48 27
25 56 98
